solution status: optimal solution found
objective value:                     114234.695193863
d11(0,0)                                            1 	(obj:0)
d11(1,1)                                            1 	(obj:0)
d11(1,2)                                            1 	(obj:0)
d11(2,3)                                            1 	(obj:0)
d11(2,4)                                            1 	(obj:0)
d11(2,5)                                            1 	(obj:0)
d11(3,7)                                            1 	(obj:0)
d11(3,9)                                            1 	(obj:0)
d11(3,11)                                           1 	(obj:0)
d11(3,13)                                           1 	(obj:0)
d12(3,8)                                            1 	(obj:0)
d12(3,10)                                           1 	(obj:0)
d12(3,12)                                           1 	(obj:0)
d12(3,14)                                           1 	(obj:0)
d21(2,3)                                            1 	(obj:0)
d21(3,7)                                            1 	(obj:0)
d21(3,8)                                            1 	(obj:0)
WB(2)                                3315.65537776224 	(obj:0)
y2(3,8)                              1020.86443714272 	(obj:0)
y2(3,10)                             1020.86443714272 	(obj:0)
y2(3,12)                             1020.86443714272 	(obj:0)
y2(3,14)                             1020.86443714272 	(obj:0)
STE(1,1)                             5586.75010111118 	(obj:0)
STE(0,0)                                         7875 	(obj:0)
STE(1,2)                                         7245 	(obj:0)
STE(2,3)                             3298.50020222237 	(obj:0)
STE(2,4)                             4956.75010111118 	(obj:0)
STE(2,5)                             4956.75010111118 	(obj:0)
STE(2,6)                                         6615 	(obj:0)
STE(3,7)                             2279.25010111118 	(obj:0)
STE(3,8)                             3638.32141750795 	(obj:0)
STE(3,9)                                       3937.5 	(obj:0)
STE(3,10)                            5296.57131639677 	(obj:0)
STE(3,11)                                      3937.5 	(obj:0)
STE(3,12)                            5296.57131639677 	(obj:0)
STE(3,13)                            5595.74989888882 	(obj:0)
STE(3,14)                            6954.82121528559 	(obj:0)
AVE(2)                               3315.65537776224 	(obj:0)
WB(3)                                3315.65799770399 	(obj:0)
y1(1,1)                              1492.42490899994 	(obj:0)
y1(2,3)                              1492.42490899994 	(obj:0)
y1(2,5)                              1492.42490899994 	(obj:0)
y1(3,7)                              350.325091000064 	(obj:0)
y1(3,9)                              350.325091000064 	(obj:0)
y1(3,11)                             350.325091000064 	(obj:0)
y1(3,13)                             350.325091000064 	(obj:0)
AVE(3)                               3315.65799770399 	(obj:0)
WB(1)                                3248.33172520918 	(obj:0)
BG(1)                                4196.29249897957 	(obj:10)
BG(2)                                4196.29249897959 	(obj:10)
BG(3)                                3030.88452142868 	(obj:10)
AVE(1)                               3248.33172520918 	(obj:0)
